34042044744:
20-04-34	4
97122704785:
27-12-97	8
25060514865:
05-06-25	6
52090233288:
02-09-52	8
65020391802:
03-02-65	0
41111124560:
11-11-41	6
71071854926:
18-07-71	2
27101894327:
18-10-27	2
69011561827:
15-01-69	2
78052069160:
20-05-78	6
